10J3M/DAT/10J3MNLR-13.dat
10 3
18.2982 31.8294
31.9056 34.4397
28.8989 15.1116
22.2994 32.2888
10.4324 46.987
28.2633 48.1787
29.1687 13.6274
19.86 4.2472
9.5325 5.3144
30.0388 41.2864
91.1035