10J3M/SOL/10J3MNLR-13.sol
solution status: optimal solution found
objective value:                     76.2325925990877
x#1#1                                               1 	(obj:0)
x#2#3                                               1 	(obj:0)
x#3#2                               0.780649182930458 	(obj:0)
x#3#3                               0.219350817069542 	(obj:0)
x#4#1                                               1 	(obj:0)
x#5#2                               0.154622380812312 	(obj:0)
x#5#3                                0.84537549093945 	(obj:0)
x#6#1                               0.381842413617203 	(obj:0)
x#6#2                               0.618157586382797 	(obj:0)
x#7#3                                               1 	(obj:0)
x#8#1                               0.770914698403856 	(obj:0)
x#8#2                               0.229085301596144 	(obj:0)
x#9#1                                               1 	(obj:0)
x#10#2                                              1 	(obj:0)
z                                    76.2325925990877 	(obj:1)
